bench/smt/bench/loop_zilu.benchmark22_conjunctive.smt

    (declare-fun |inv| (Int Int) Bool)
    (assert 
      (forall ((x Int) (y Int) (xp Int) (yp Int)) 
        (and 
          (=> (and (= x 1) (= y 0)) (inv x y))
          (=> (and (inv x y)    (and (= xp (+ x y)) (= yp (+ y 1)))) (inv xp yp))
          (=> (inv x y) (>= (+ x (* -1 y)) 0))
        )
      )
    )
    (check-sat)
    (get-model)
    